PROBLEM NAME: eil51_n6
KNAPSACK DATA TYPE: uncorrelated
DIMENSION: 6
NUMBER OF ITEMS: 25
CAPACITY OF KNAPSACK: 14117
MIN SPEED: 0.1
MAX SPEED: 1
RENTING RATIO: 23.58
EDGE_WEIGHT_TYPE: CEIL_2D
NODE_COORD_SECTION	(INDEX, X, Y):
1	31	62
2	52	41
3	27	23
4	57	58
5	62	42
6	43	67
ITEMS SECTION	(INDEX, PROFIT, WEIGHT, ASSIGNED NODE NUMBER):
1	971	41	6
2	903	776	6
3	898	902	6
4	891	532	6
5	867	970	6
6	808	906	4
7	801	949	4
8	727	724	4
9	710	416	4
10	632	343	4
11	572	300	5
12	548	340	5
13	518	149	5
14	514	512	5
15	434	925	5
16	431	493	2
17	383	700	2
18	343	581	2
19	281	930	2
20	218	428	2
21	212	811	3
22	138	148	3
23	116	909	3
24	106	893	3
25	91	851	3
